nLocations = 20;
nCities = 30;
nTypes = 5;

p = [22 14 33 11 17 3 1 20 14 40 12 24 21 39 17 6 19 33 36 35 1 40 15 3 9 36 27 18 15 11];
posCities = [[7 4] [11 3] [8 3] [1 6] [5 6] [5 12] [6 5] [3 0] [6 1] [2 6] [0 4] [0 5] [4 1] [0 10] [1 10] [11 12] [11 1] [10 3] [11 11] [9 11] [7 10] [7 12] [3 3] [8 9] [0 8] [5 0] [11 4] [4 6] [12 4] [12 7]];
posLocations = [[0 9] [1 1] [9 9] [5 7] [7 2] [6 5] [7 5] [11 12] [7 1] [8 10] [6 1] [1 10] [11 3] [2 12] [4 6] [0 0] [1 0] [3 8] [8 9] [8 5]];

d_city = [7 11 12 13 16];
cap = [178 218 250 261 317];
cost = [10 24 31 41 46];

d_center = 6.9;
